com.javasolver.samples/results/com.javasolver.samples.ProblemZoo.sol
solution status: optimal solution found
objective value:                                 3800
Vi2                                               300 	(obj:0)
Vi1                                                 6 	(obj:0)
Vi0                                                 2 	(obj:0)
Vi3                                              3800 	(obj:1)
